n = 50;
C = 6492;
w = [410,261,45,148,300,109,430,15,208,244,279,298,400,30,303,491,313,254,169,387,7,264,418,410,113,128,232,120,387,23,146,469,143,341,498,356,343,150,148,479,470,125,416,198,252,481,191,350,182,50];
p = [410,261,45,148,300,109,430,15,208,244,279,298,400,30,303,491,313,254,169,387,7,264,418,410,113,128,232,120,387,23,146,469,143,341,498,356,343,150,148,479,470,125,416,198,252,481,191,350,182,50];
